(set-info :smt-lib-version 2.6)
(set-logic QF_S)
(set-info :source |
Generated by: Hongjian Jiang, Oliver Markgraf, Daniel Stan, Anthony W. Lin, Philipp Ruemmer
Generated on: 2025-04-11
Application: Using String Solvers to solve RMC problems encoded as CHC over Strings
Target solver: cvc5, OSTRICH, Z3, Z3alpha, Z3-noodler
Time limit: 60.0
Benchmarks are extracted by running HornStr https://arg-git.informatik.uni-kl.de/pub/string-chc-lib on all benchmarks
provided in the repository and gathering the string queries sent to the string solvers.
|)
(declare-fun varout () String)
(assert (let ((a!1 (re.union (re.union (re.union (str.to_re "Z") (str.to_re "c"))
                               (str.to_re "d"))
                     (str.to_re "e"))))
(let ((a!2 (re.union (re.union (re.union a!1 (str.to_re "b")) (str.to_re "a"))
                     (str.to_re "f"))))
  (str.in_re varout (re.* a!2)))))
(declare-fun varin () String)
(assert (let ((a!1 (re.union (re.union (re.union (str.to_re "Z") (str.to_re "c"))
                               (str.to_re "d"))
                     (str.to_re "e"))))
(let ((a!2 (re.union (re.union (re.union a!1 (str.to_re "b")) (str.to_re "a"))
                     (str.to_re "f"))))
  (str.in_re varin (re.* a!2)))))
(declare-fun X () String)
(declare-fun isin () Bool)
(declare-fun isout () Bool)
(assert (let ((a!1 (re.++ (re.* (re.++ (str.to_re "b") (str.to_re "b")))
                  (str.to_re "b")))
      (a!5 (re.++ (re.* (re.++ (str.to_re "b") (str.to_re "b")))
                  (re.++ (str.to_re "b") (str.to_re "e"))))
      (a!9 (re.++ (re.* (re.++ (str.to_re "e") (str.to_re "e")))
                  (str.to_re "e"))))
(let ((a!2 (re.union (str.to_re "b")
                     (re.++ (re.++ (str.to_re "b") (str.to_re "b")) a!1)))
      (a!6 (re.union (re.++ (str.to_re "b") (str.to_re "e"))
                     (re.++ (re.++ (str.to_re "b") (str.to_re "b")) a!5)))
      (a!10 (re.union (str.to_re "e")
                      (re.++ (re.++ (str.to_re "e") (str.to_re "e")) a!9))))
(let ((a!3 (re.++ (re.* (re.++ (str.to_re "b") (str.to_re "b"))) a!2))
      (a!7 (re.++ (re.* (re.++ (str.to_re "b") (str.to_re "b"))) a!6))
      (a!11 (re.++ (re.* (re.++ (str.to_re "e") (str.to_re "e"))) a!10)))
(let ((a!4 (re.union (str.to_re "Z")
                     (re.++ (re.++ (str.to_re "Z") (str.to_re "b")) a!3)))
      (a!8 (re.union (re.++ (str.to_re "Z") (str.to_re "e"))
                     (re.++ (re.++ (str.to_re "Z") (str.to_re "b")) a!7))))
  (and (str.in_re X (re.union a!4 (re.++ a!8 a!11)))
       (not isin)
       (= X varout)
       isout))))))
(assert (str.in_re varout re.none))
(check-sat)
